
  22   10
  10   10   10   10   10   10   10   10   10   10

   0   0   0   0   0   0   0   0   0   0   0   6 2 3 5 8 10 21 
   7  10  10  10  10  10  10  10  10  10  10   3 20 19 4 
   2  10  10  10  10  10  10  10  10  10  10   3 20 19 6 
   5  10  10  10  10  10  10  10  10  10  10   1 6 
   9  10  10  10  10  10  10  10  10  10  10   5 20 19 18 17 11 
   9  10  10  10  10  10  10  10  10  10  10   1 7 
   7  10  10  10  10  10  10  10  10  10  10   1 9 
   7  10  10  10  10  10  10  10  10  10  10   1 9 
   6  10  10  10  10  10  10  10  10  10  10   3 18 17 11 
   1  10  10  10  10  10  10  10  10  10  10   3 19 17 11 
   6  10  10  10  10  10  10  10  10  10  10   1 12 
   8  10  10  10  10  10  10  10  10  10  10   2 16 13 
   6  10  10  10  10  10  10  10  10  10  10   1 14 
   9  10  10  10  10  10  10  10  10  10  10   1 15 
  10  10  10  10  10  10  10  10  10  10  10   1 22
   1  10  10  10  10  10  10  10  10  10  10   1 22
   7  10  10  10  10  10  10  10  10  10  10   1 22
   1  10  10  10  10  10  10  10  10  10  10   1 22
   2  10  10  10  10  10  10  10  10  10  10   1 22
   6  10  10  10  10  10  10  10  10  10  10   1 22
   6  10  10  10  10  10  10  10  10  10  10   1 22
   0   0   0   0   0   0   0   0   0   0   0   0 
